NAME : amz1774.123606_123606.tour
COMMENT : Cost = 123606_123606
COMMENT : Found by LKH-AMZ [Keld Helsgaun] Sun May 11 15:00:03 2025
COMMENT : TW viol.: 0 #: 0
TYPE : TOUR
DIMENSION : 143
TOUR_SECTION
133
118
96
85
29
53
93
42
25
104
55
7
99
135
88
49
57
70
58
18
34
35
60
141
21
113
137
63
52
142
131
41
110
109
123
39
116
111
50
97
73
86
106
107
5
47
11
71
80
14
94
130
102
33
98
101
36
44
2
20
69
126
40
9
89
19
65
30
143
16
6
95
100
129
46
78
128
28
140
108
24
51
37
67
138
17
82
84
31
66
134
72
125
91
27
38
62
8
81
23
45
3
74
124
59
1
22
120
76
54
13
132
79
56
136
121
15
43
115
92
77
4
87
117
10
127
64
26
68
61
103
90
48
112
32
122
12
119
139
75
83
114
105
-1
EOF
